%SETS
JOBS     = 1..4;
MACHINES = 1..5;
SPEED    = 1;

time               = array3d(JOBS,MACHINES,1..SPEED,[68, 49, 90, 96, 44, 81, 57, 61, 93, 16, 17, 11, 84, 80, 88, 98, 81, 51, 80, 20]);
energy             = array3d(JOBS,MACHINES,1..SPEED,[50, 61, 40, 38, 64, 44, 56, 54, 39, 85, 84, 89, 43, 44, 41, 37, 44, 60, 44, 81]);
precedence         = array2d(JOBS,MACHINES,[4,3,1,2,0,4,0,2,3,1,0,1,3,4,2,2,0,3,1,4]);